(set-info :smt-lib-version 2.6)
(set-logic QF_S)
(set-info :source |
Generated by: Joel Day, Thorsten Ehlers, Mitja Kulczynski, Federico Mora, Florin Manea, Dirk Nowotka, Danny Poulsen, Zhengyang Lu
Application: Test WOORPJE
Target solver: WOORPJE
Publications: Day, J. D., Ehlers, T., Kulczynski, M., Manea, F., Nowotka, D., & Poulsen, D. B. (2019). On solving word equations using SAT. In RP 2019
Description: Consisting of a system of 100 small random word equations with at most 6 letters, 10 variables and length 60.
|)
(set-info :license "https://creativecommons.org/licenses/by/4.0/")
(set-info :category "random")
(set-info :status unknown)

(declare-fun B () String)
(declare-fun A () String)
(declare-fun C () String)
(declare-fun D () String)
(assert (= (str.++  B "d" C "cabcaadccccdbcbcb")  (str.++  "bddcdbacddbdaaabdcaaccccbaadbacabcaadccccdbcbcb" "") ))
(assert (= (str.++  "abbaaabcdabbdbbcddb" B "ddddaaa")  (str.++  "abbaaabcdabbdbbc" D "babadaddaaccabaabddddaaa") ))
(assert (= (str.++  "bcaaaabbaadbcccaacbcbadadaacdaccdbdbdaccaaaccbc" "")  (str.++  "bcaaaabbaadbcccaacbcbadadaacda" A "bdbdaccaaaccbc") ))
(assert (= (str.++  "dadaabaabacadabcdabbdcaacddcaddcda" A "dabddccaca")  (str.++  "dadaabaabacadabcdabbdcaacddcaddcda" A "dabddccaca") ))
(assert (= (str.++  "dabcaabbccdbddbddbbbbacaddbdcacabacddddcaadcabb" "")  (str.++  "dabcaabb" A "bddbddbbbbacaddbdcacabacddddcaadcabb") ))
(assert (= (str.++  "bbdaadbcababdbaabbccaaabbaabbbaccbdaa" A "bbcdadc")  (str.++  "bbdaadbcababdbaabbccaaabbaabbbaccbdaa" A "bbcdadc") ))
(assert (= (str.++  "aacbbbaccccabcbaaabaacccaabcdacbadacdaadcbdc" A)  (str.++  "aacbbbaccccabcbaaabaacccaabcdacbadacdaadcbdcccd" "") ))
(assert (= (str.++  "bcdcbcbdbaddabdbbcbbaaddaadbcdbacdbbaccdabcaaab" "")  (str.++  "bcdcbcbdbaddabdbbcbbaaddaadbcdbacdbba" A "abcaaab") ))
(assert (= (str.++  "adccbcacbaaabbbbbcdbdaadcdccdcaacdaccbacabdbcdc" "")  (str.++  "adccbcacbaaabbbbbcdbdaadcd" A "caacdaccbacabdbcdc") ))
(check-sat)

(exit)
